p tdp 102 101
7 11
9 82
87 12
65 39
14 90
59 56
48 10
66 44
87 97
91 27
75 22
21 43
84 92
58 40
48 1
34 54
38 98
76 9
11 4
60 15
15 93
61 44
73 26
36 100
27 29
75 43
72 94
20 10
15 71
95 67
40 36
77 96
46 41
1 61
50 70
97 5
80 6
102 55
86 95
100 52
26 51
31 19
76 35
23 13
24 61
99 16
98 7
22 57
46 77
101 90
18 50
64 79
39 68
16 32
27 85
63 74
34 81
37 35
16 79
23 69
47 80
53 23
94 89
45 47
16 73
94 88
37 94
81 79
11 42
83 34
68 64
33 78
48 59
98 25
97 80
4 92
17 3
49 100
11 10
74 14
55 62
62 15
28 91
49 31
78 7
95 49
88 23
35 97
70 8
50 28
46 7
2 27
14 19
85 3
30 57
38 73
43 29
55 83
91 58
100 5
17 25
